\ LP format - for model browsing. Use MPS format to capture full model detail.
Minimize
  0 B39(0) + 0 B40(0) + 0 B41(0) + 0 B44(0) + 0 B47(0) + 0 B50(0) + 0 B53(0)
   + 0 B54(0) + 0 B55(0) + 0 B56(0) + 0 B59(0) + 0 B64(0) + 0 B68(0)
   + 0 B69(0) + 0 B70(0) + 0 B71(0) + 0 B72(0) + 0 B75(0) + 0 B78(0)
   + 0 B81(0) + 0 B84(0) + 0 B85(0) + 0 B86(0) + 0 B87(0) + 0 B88(0)
   + 0 B89(0) + 0 B92(0) + 0 B95(0) + 0 B98(0) + 0 B99(0) + 0 B100(0)
   + 0 B101(0) + 0 B102(0) + 0 B103(0) + 0 B104(0) + 0 B113(0) + 0 B114(0)
   + 0 B115(0) + 0 B116(0) + 0 B117(0) + 0 B118(0) + 0 B119(0) + 0 B120(0)
   + 0 B123(0) + 0 B126(0) + 0 B129(0) + 0 B130(0) + 0 B131(0) + 0 B132(0)
   + 0 B133(0) + 0 B134(0) + 0 B135(0) + 0 B136(0) + 0 B137(0) + 0 B139(0)
   + 0 B140(0) + 0 B142(0) + 0 B143(0) + 0 B144(0) + 0 B145(0) + 0 B146(0)
   + 0 B147(0) + 0 B148(0) + 0 B149(0) + 0 B150(0) + 0 B151(0) + 0 B152(0)
   + 0 B153(0) + 0 B158(0) + 0 B159(0) + 0 B160(0) + 0 B161(0) + 0 B162(0)
   + 0 B163(0) + 0 B164(0) + 0 B165(0) + 0 B166(0) + 0 B167(0) + 0 B168(0)
   + 0 B171(0) + 0 B174(0) + 0 B175(0) + 0 B176(0) + 0 B177(0) + 0 B178(0)
   + 0 B179(0) + 0 B180(0) + 0 B181(0) + 0 B182(0) + 0 B183(0) + 0 B184(0)
   + 0 B185(0) + 0 B187(0) + 0 B188(0) + 0 B189(0) + 0 B190(0) + 0 B191(0)
   + 0 B192(0) + 0 B193(0) + 0 B194(0) + 0 B195(0) + 0 B196(0) + 0 B197(0)
   + 0 B198(0) + 0 B199(0) + 0 B200(0) + 0 B204(0) + 0 B205(0) + 0 B206(0)
   + 0 B207(0) + 0 B208(0) + 0 B209(0) + 0 B210(0) + 0 B211(0) + 0 B212(0)
   + 0 B213(0) + 0 B214(0) + 0 B215(0) + 0 B216(0) + 0 B219(0) + 0 B220(0)
   + 0 B221(0) + 0 B222(0) + 0 B223(0) + 0 B224(0) + 0 B225(0) + 0 B226(0)
   + 0 B227(0) + 0 B228(0) + 0 B229(0) + 0 B230(0) + 0 B231(0) + 0 B232(0)
   + 0 B233(0) + 0 B234(0) + 0 B235(0) + 0 B236(0) + 0 B237(0) + 0 B238(0)
   + 0 B239(0) + 0 B240(0) + 0 B241(0) + 0 B242(0) + 0 B243(0) + 0 B244(0)
   + 0 B245(0) + 0 B246(0) + 0 B247(0) + 0 B248(0) + 0 B249(0) + 0 B250(0)
   + 0 B251(0) + 0 B252(0) + 0 B253(0) + 0 B254(0) + 0 B255(0) + 0 B256(0)
   + 0 B257(0) + 0 B258(0) + 0 B259(0) + 0 B260(0) + 0 B261(0) + 0 B262(0)
   + 0 B263(0) + I303(1) + 0 B304(0) + 0 B305(0) + 0 B306(0) + 0 B307(0)
   + 0 B308(0) + 0 B309(0) + 0 B313(0) + 0 B314(0) + 0 B315(0) + 0 B316(0)
   + 0 B317(0) + 0 B321(0) + 0 B322(0) + 0 B323(0) + 0 B324(0) + 0 B325(0)
   + 0 B329(0) + 0 B330(0) + 0 B331(0) + 0 B332(0) + 0 B335(0) + 0 B336(0)
   + 0 B337(0) + 0 B338(0) + 0 B339(0) + 0 B340(0)
Subject To
 c0: B0(13) + B1(13) + B2(17) = 1
 c1: B3(14) + B4(13) + B5(13) = 1
 c2: B6(15) + B7(14) + B8(8) = 1
 c3: B9(14) + B10(14) = 1
 c4: B11(14) + B12(13) + B13(15) = 1
 c5: B14(14) + B15(10) + B16(8) = 1
 c6: B17(13) + B18(13) = 1
 c7: B19(8) + B20(16) + B21(14) = 1
 c8: B22(15) + B23(14) + B24(10) = 1
 c9: B25(13) + B26(13) = 1
 c10: B27(15) + B28(13) = 1
 c11: B29(16) + B30(10) = 1
 c12: B31(14) + B32(14) + B33(14) = 1
 c13: B34(15) + B35(16) + B36(12) = 1
 c14: B37(13) + B38(10) = 1
 c15: - 1e+09 B0(13) + I264(14) <= 0
 c16: - 1e+09 B1(13) + I265(14) <= 0
 c17: - 1e+09 B2(17) + I266(18) <= 0
 c18: - 1e+09 B3(14) + I267(18) <= 0
 c19: - 1e+09 B4(13) + I268(16) <= 0
 c20: - 1e+09 B5(13) + I269(16) <= 0
 c21: - 1e+09 B6(15) + I270(18) <= 0
 c22: - 1e+09 B7(14) + I271(18) <= 0
 c23: - 1e+09 B8(8) + I272(12) <= 0
 c24: - 1e+09 B9(14) + I273(15) <= 0
 c25: - 1e+09 B10(14) + I274(15) <= 0
 c26: - 1e+09 B11(14) + I275(16) <= 0
 c27: - 1e+09 B12(13) + I276(16) <= 0
 c28: - 1e+09 B13(15) + I277(18) <= 0
 c29: - 1e+09 B14(14) + I278(17) <= 0
 c30: - 1e+09 B15(10) + I279(13) <= 0
 c31: - 1e+09 B16(8) + I280(11) <= 0
 c32: - 1e+09 B17(13) + I281(14) <= 0
 c33: - 1e+09 B18(13) + I282(14) <= 0
 c34: - 1e+09 B19(8) + I283(10) <= 0
 c35: - 1e+09 B20(16) + I284(18) <= 0
 c36: - 1e+09 B21(14) + I285(16) <= 0
 c37: - 1e+09 B22(15) + I286(18) <= 0
 c38: - 1e+09 B23(14) + I287(18) <= 0
 c39: - 1e+09 B24(10) + I288(14) <= 0
 c40: - 1e+09 B25(13) + I289(14) <= 0
 c41: - 1e+09 B26(13) + I290(14) <= 0
 c42: - 1e+09 B27(15) + I291(17) <= 0
 c43: - 1e+09 B28(13) + I292(15) <= 0
 c44: - 1e+09 B29(16) + I293(19) <= 0
 c45: - 1e+09 B30(10) + I294(13) <= 0
 c46: - 1e+09 B31(14) + I295(15) <= 0
 c47: - 1e+09 B32(14) + I296(15) <= 0
 c48: - 1e+09 B33(14) + I297(15) <= 0
 c49: - 1e+09 B34(15) + I298(17) <= 0
 c50: - 1e+09 B35(16) + I299(19) <= 0
 c51: - 1e+09 B36(12) + I300(15) <= 0
 c52: - 1e+09 B37(13) + I301(16) <= 0
 c53: - 1e+09 B38(10) + I302(14) <= 0
 c54: - 147 B0(13) - 123 B1(13) - 145 B2(17) - I264(14) - I265(14)
   - I266(18) + I267(18) + I268(16) + I269(16) >= 0
 c55: - 1.000000147e+09 B0(13) - 123 B1(13) - 145 B2(17) - 1e+09 B5(13)
   - I264(14) - I265(14) - I266(18) + I267(18) + I268(16) + I269(16)
   >= -1.999999984e+09
 c56: - 147 B0(13) - 1.000000123e+09 B1(13) - 145 B2(17) - 1e+09 B4(13)
   - I264(14) - I265(14) - I266(18) + I267(18) + I268(16) + I269(16)
   >= -1.99999999e+09
 c57: - 140 B3(14) - 130 B4(13) - 123 B5(13) - I267(18) - I268(16)
   - I269(16) + I270(18) + I271(18) + I272(12) >= 0
 c58: - 1.00000014e+09 B3(14) - 130 B4(13) - 123 B5(13) - 1e+09 B6(15)
   - I267(18) - I268(16) - I269(16) + I270(18) + I271(18) + I272(12)
   >= -1.999999991e+09
 c59: - 214 B9(14) - 150 B10(14) - I273(15) - I274(15) + I275(16)
   + I276(16) + I277(18) >= 0
 c60: - 214 B9(14) - 1.00000015e+09 B10(14) - 1e+09 B11(14) - I273(15)
   - I274(15) + I275(16) + I276(16) + I277(18) >= -1.999999987e+09
 c61: - 87 B11(14) - 66 B12(13) - 99 B13(15) - I275(16) - I276(16)
   - I277(18) + I278(17) + I279(13) + I280(11) >= 0
 c62: - 87 B17(13) - 62 B18(13) - I281(14) - I282(14) + I283(10) + I284(18)
   + I285(16) >= 0
 c63: - 145 B19(8) - 180 B20(16) - 105 B21(14) - I283(10) - I284(18)
   - I285(16) + I286(18) + I287(18) + I288(14) >= 0
 c64: - 145 B19(8) - 180 B20(16) - 1.000000105e+09 B21(14) - 1e+09 B22(15)
   - I283(10) - I284(18) - I285(16) + I286(18) + I287(18) + I288(14)
   >= -1.999999985e+09
 c65: - 87 B25(13) - 65 B26(13) - I289(14) - I290(14) + I291(17) + I292(15)
   >= 0
 c66: - 250 B27(15) - 173 B28(13) - I291(17) - I292(15) + I293(19)
   + I294(13) >= 0
 c67: - 123 B31(14) - 145 B32(14) - 128 B33(14) - I295(15) - I296(15)
   - I297(15) + I298(17) + I299(19) + I300(15) >= 0
 c68: - 123 B31(14) - 1.000000145e+09 B32(14) - 128 B33(14) - 1e+09 B34(15)
   - I295(15) - I296(15) - I297(15) + I298(17) + I299(19) + I300(15)
   >= -1.99999999e+09
 c69: - 86 B34(15) - 65 B35(16) - 47 B36(12) - I298(17) - I299(19)
   - I300(15) + I301(16) + I302(14) >= 0
 c70: - 86 B34(15) - 65 B35(16) - 1.000000047e+09 B36(12) - 1e+09 B37(13)
   - I298(17) - I299(19) - I300(15) + I301(16) + I302(14)
   >= -1.999999986e+09
 c71: - 1e+09 B0(13) - 1e+09 B9(14) - 1e+09 B42(4) + I264(14) - I273(15)
   >= -2.999999772e+09
 c72: - 1e+09 B0(13) - 1e+09 B9(14) + 1e+09 B42(4) - I264(14) + I273(15)
   >= -1.999999835e+09
 c73: - 1e+09 B2(17) - 1e+09 B10(14) - 1e+09 B42(4) + I266(18) - I274(15)
   >= -2.999999834e+09
 c74: - 1e+09 B2(17) - 1e+09 B10(14) + 1e+09 B42(4) - I266(18) + I274(15)
   >= -1.999999839e+09
 c75: - 1e+09 B1(13) - 1e+09 B12(13) - 1e+09 B43(4) + I265(14) - I276(16)
   >= -2.999999919e+09
 c76: - 1e+09 B1(13) - 1e+09 B12(13) + 1e+09 B43(4) - I265(14) + I276(16)
   >= -1.999999861e+09
 c77: - 1e+09 B2(17) - 1e+09 B11(14) - 1e+09 B43(4) + I266(18) - I275(16)
   >= -2.999999901e+09
 c78: - 1e+09 B2(17) - 1e+09 B11(14) + 1e+09 B43(4) - I266(18) + I275(16)
   >= -1.99999984e+09
 c79: - 1e+09 B0(13) - 1e+09 B17(13) - 1e+09 B45(4) + I264(14) - I281(14)
   >= -2.999999898e+09
 c80: - 1e+09 B0(13) - 1e+09 B17(13) + 1e+09 B45(4) - I264(14) + I281(14)
   >= -1.999999836e+09
 c81: - 1e+09 B1(13) - 1e+09 B18(13) - 1e+09 B45(4) + I265(14) - I282(14)
   >= -2.999999928e+09
 c82: - 1e+09 B1(13) - 1e+09 B18(13) + 1e+09 B45(4) - I265(14) + I282(14)
   >= -1.999999863e+09
 c83: - 1e+09 B2(17) - 1e+09 B20(16) - 1e+09 B46(2) + I266(18) - I284(18)
   >= -2.999999811e+09
 c84: - 1e+09 B2(17) - 1e+09 B20(16) + 1e+09 B46(2) - I266(18) + I284(18)
   >= -1.999999845e+09
 c85: - 1e+09 B0(13) - 1e+09 B25(13) - 1e+09 B48(4) + I264(14) - I289(14)
   >= -2.999999902e+09
 c86: - 1e+09 B0(13) - 1e+09 B25(13) + 1e+09 B48(4) - I264(14) + I289(14)
   >= -1.999999838e+09
 c87: - 1e+09 B1(13) - 1e+09 B26(13) - 1e+09 B48(4) + I265(14) - I290(14)
   >= -2.999999925e+09
 c88: - 1e+09 B1(13) - 1e+09 B26(13) + 1e+09 B48(4) - I265(14) + I290(14)
   >= -1.999999862e+09
 c89: - 1e+09 B2(17) - 1e+09 B27(15) - 1e+09 B49(2) + I266(18) - I291(17)
   >= -2.99999974e+09
 c90: - 1e+09 B2(17) - 1e+09 B27(15) + 1e+09 B49(2) - I266(18) + I291(17)
   >= -1.999999844e+09
 c91: - 1e+09 B0(13) - 1e+09 B33(14) - 1e+09 B51(6) + I264(14) - I297(15)
   >= -2.999999855e+09
 c92: - 1e+09 B0(13) - 1e+09 B33(14) + 1e+09 B51(6) - I264(14) + I297(15)
   >= -1.999999837e+09
 c93: - 1e+09 B1(13) - 1e+09 B31(14) - 1e+09 B51(6) + I265(14) - I295(15)
   >= -2.999999863e+09
 c94: - 1e+09 B1(13) - 1e+09 B31(14) + 1e+09 B51(6) - I265(14) + I295(15)
   >= -1.999999863e+09
 c95: - 1e+09 B2(17) - 1e+09 B32(14) - 1e+09 B51(6) + I266(18) - I296(15)
   >= -2.999999845e+09
 c96: - 1e+09 B2(17) - 1e+09 B32(14) + 1e+09 B51(6) - I266(18) + I296(15)
   >= -1.999999838e+09
 c97: - 1e+09 B2(17) - 1e+09 B34(15) - 1e+09 B52(2) + I266(18) - I298(17)
   >= -2.999999904e+09
 c98: - 1e+09 B2(17) - 1e+09 B34(15) + 1e+09 B52(2) - I266(18) + I298(17)
   >= -1.999999845e+09
 c99: - 1e+09 B5(13) - 1e+09 B9(14) - 1e+09 B57(2) + I269(16) - I273(15)
   >= -2.999999775e+09
 c100: - 1e+09 B5(13) - 1e+09 B9(14) + 1e+09 B57(2) - I269(16) + I273(15)
   >= -1.999999866e+09
 c101: - 1e+09 B4(13) - 1e+09 B12(13) - 1e+09 B58(4) + I268(16) - I276(16)
   >= -2.999999922e+09
 c102: - 1e+09 B4(13) - 1e+09 B12(13) + 1e+09 B58(4) - I268(16) + I276(16)
   >= -1.999999856e+09
 c103: - 1e+09 B3(14) - 1e+09 B13(15) - 1e+09 B58(4) + I267(18) - I277(18)
   >= -2.99999989e+09
 c104: - 1e+09 B3(14) - 1e+09 B13(15) + 1e+09 B58(4) - I267(18) + I277(18)
   >= -1.999999845e+09
 c105: - 1e+09 B5(13) - 1e+09 B17(13) - 1e+09 B60(4) + I269(16) - I281(14)
   >= -2.999999897e+09
 c106: - 1e+09 B5(13) - 1e+09 B17(13) + 1e+09 B60(4) - I269(16) + I281(14)
   >= -1.999999862e+09
 c107: - 1e+09 B4(13) - 1e+09 B18(13) - 1e+09 B60(4) + I268(16) - I282(14)
   >= -2.999999927e+09
 c108: - 1e+09 B4(13) - 1e+09 B18(13) + 1e+09 B60(4) - I268(16) + I282(14)
   >= -1.999999861e+09
 c109: - 1e+09 B3(14) - 1e+09 B21(14) - 1e+09 B61(2) + I267(18) - I285(16)
   >= -2.999999879e+09
 c110: - 1e+09 B3(14) - 1e+09 B21(14) + 1e+09 B61(2) - I267(18) + I285(16)
   >= -1.99999985e+09
 c111: - 1e+09 B3(14) - 1e+09 B22(15) - 1e+09 B62(2) + I267(18) - I286(18)
   >= -2.999999799e+09
 c112: - 1e+09 B3(14) - 1e+09 B22(15) + 1e+09 B62(2) - I267(18) + I286(18)
   >= -1.999999847e+09
 c113: - 1e+09 B5(13) - 1e+09 B25(13) - 1e+09 B63(4) + I269(16) - I289(14)
   >= -2.999999903e+09
 c114: - 1e+09 B5(13) - 1e+09 B25(13) + 1e+09 B63(4) - I269(16) + I289(14)
   >= -1.99999986e+09
 c115: - 1e+09 B4(13) - 1e+09 B26(13) - 1e+09 B63(4) + I268(16) - I290(14)
   >= -2.999999924e+09
 c116: - 1e+09 B4(13) - 1e+09 B26(13) + 1e+09 B63(4) - I268(16) + I290(14)
   >= -1.999999858e+09
 c117: - 1e+09 B3(14) - 1e+09 B29(16) - 1e+09 B65(2) + I267(18) - I293(19)
   >= -2.999999839e+09
 c118: - 1e+09 B3(14) - 1e+09 B29(16) + 1e+09 B65(2) - I267(18) + I293(19)
   >= -1.999999843e+09
 c119: - 1e+09 B5(13) - 1e+09 B33(14) - 1e+09 B66(4) + I269(16) - I297(15)
   >= -2.999999861e+09
 c120: - 1e+09 B5(13) - 1e+09 B33(14) + 1e+09 B66(4) - I269(16) + I297(15)
   >= -1.999999863e+09
 c121: - 1e+09 B4(13) - 1e+09 B31(14) - 1e+09 B66(4) + I268(16) - I295(15)
   >= -2.999999865e+09
 c122: - 1e+09 B4(13) - 1e+09 B31(14) + 1e+09 B66(4) - I268(16) + I295(15)
   >= -1.999999857e+09
 c123: - 1e+09 B3(14) - 1e+09 B35(16) - 1e+09 B67(2) + I267(18) - I299(19)
   >= -2.999999921e+09
 c124: - 1e+09 B3(14) - 1e+09 B35(16) + 1e+09 B67(2) - I267(18) + I299(19)
   >= -1.999999847e+09
 c125: - 1e+09 B6(15) - 1e+09 B13(15) - 1e+09 B73(2) + I270(18) - I277(18)
   >= -2.999999888e+09
 c126: - 1e+09 B6(15) - 1e+09 B13(15) + 1e+09 B73(2) - I270(18) + I277(18)
   >= -1.999999837e+09
 c127: - 1e+09 B7(14) - 1e+09 B14(14) - 1e+09 B74(4) + I271(18) - I278(17)
   >= -2.999999806e+09
 c128: - 1e+09 B7(14) - 1e+09 B14(14) + 1e+09 B74(4) - I271(18) + I278(17)
   >= -1.999999827e+09
 c129: - 1e+09 B8(8) - 1e+09 B16(8) - 1e+09 B74(4) + I272(12) - I280(11)
   >= -2.999999837e+09
 c130: - 1e+09 B8(8) - 1e+09 B16(8) + 1e+09 B74(4) - I272(12) + I280(11)
   >= -1.999999787e+09
 c131: - 1e+09 B6(15) - 1e+09 B21(14) - 1e+09 B76(4) + I270(18) - I285(16)
   >= -2.99999988e+09
 c132: - 1e+09 B6(15) - 1e+09 B21(14) + 1e+09 B76(4) - I270(18) + I285(16)
   >= -1.999999837e+09
 c133: - 1e+09 B8(8) - 1e+09 B19(8) - 1e+09 B76(4) + I272(12) - I283(10)
   >= -2.999999843e+09
 c134: - 1e+09 B8(8) - 1e+09 B19(8) + 1e+09 B76(4) - I272(12) + I283(10)
   >= -1.999999786e+09
 c135: - 1e+09 B6(15) - 1e+09 B22(15) - 1e+09 B77(4) + I270(18) - I286(18)
   >= -2.999999794e+09
 c136: - 1e+09 B6(15) - 1e+09 B22(15) + 1e+09 B77(4) - I270(18) + I286(18)
   >= -1.999999838e+09
 c137: - 1e+09 B7(14) - 1e+09 B23(14) - 1e+09 B77(4) + I271(18) - I287(18)
   >= -2.99999989e+09
 c138: - 1e+09 B7(14) - 1e+09 B23(14) + 1e+09 B77(4) - I271(18) + I287(18)
   >= -1.999999826e+09
 c139: - 1e+09 B7(14) - 1e+09 B28(13) - 1e+09 B79(2) + I271(18) - I292(15)
   >= -2.999999813e+09
 c140: - 1e+09 B7(14) - 1e+09 B28(13) + 1e+09 B79(2) - I271(18) + I292(15)
   >= -1.999999827e+09
 c141: - 1e+09 B6(15) - 1e+09 B29(16) - 1e+09 B80(2) + I270(18) - I293(19)
   >= -2.99999984e+09
 c142: - 1e+09 B6(15) - 1e+09 B29(16) + 1e+09 B80(2) - I270(18) + I293(19)
   >= -1.999999837e+09
 c143: - 1e+09 B6(15) - 1e+09 B35(16) - 1e+09 B82(4) + I270(18) - I299(19)
   >= -2.999999921e+09
 c144: - 1e+09 B6(15) - 1e+09 B35(16) + 1e+09 B82(4) - I270(18) + I299(19)
   >= -1.999999836e+09
 c145: - 1e+09 B7(14) - 1e+09 B36(12) - 1e+09 B82(4) + I271(18) - I300(15)
   >= -2.99999994e+09
 c146: - 1e+09 B7(14) - 1e+09 B36(12) + 1e+09 B82(4) - I271(18) + I300(15)
   >= -1.999999825e+09
 c147: - 1e+09 B7(14) - 1e+09 B37(13) - 1e+09 B83(2) + I271(18) - I301(16)
   >= -2.999999875e+09
 c148: - 1e+09 B7(14) - 1e+09 B37(13) + 1e+09 B83(2) - I271(18) + I301(16)
   >= -1.999999827e+09
 c149: - 1e+09 B9(14) - 1e+09 B17(13) - 1e+09 B90(2) + I273(15) - I281(14)
   >= -2.9999999e+09
 c150: - 1e+09 B9(14) - 1e+09 B17(13) + 1e+09 B90(2) - I273(15) + I281(14)
   >= -1.999999773e+09
 c151: - 1e+09 B10(14) - 1e+09 B20(16) - 1e+09 B91(2) + I274(15) - I284(18)
   >= -2.999999806e+09
 c152: - 1e+09 B10(14) - 1e+09 B20(16) + 1e+09 B91(2) - I274(15) + I284(18)
   >= -1.999999841e+09
 c153: - 1e+09 B9(14) - 1e+09 B25(13) - 1e+09 B93(2) + I273(15) - I289(14)
   >= -2.999999897e+09
 c154: - 1e+09 B9(14) - 1e+09 B25(13) + 1e+09 B93(2) - I273(15) + I289(14)
   >= -1.999999772e+09
 c155: - 1e+09 B10(14) - 1e+09 B27(15) - 1e+09 B94(2) + I274(15) - I291(17)
   >= -2.999999734e+09
 c156: - 1e+09 B10(14) - 1e+09 B27(15) + 1e+09 B94(2) - I274(15) + I291(17)
   >= -1.999999834e+09
 c157: - 1e+09 B9(14) - 1e+09 B33(14) - 1e+09 B96(4) + I273(15) - I297(15)
   >= -2.999999863e+09
 c158: - 1e+09 B9(14) - 1e+09 B33(14) + 1e+09 B96(4) - I273(15) + I297(15)
   >= -1.999999773e+09
 c159: - 1e+09 B10(14) - 1e+09 B32(14) - 1e+09 B96(4) + I274(15) - I296(15)
   >= -2.999999842e+09
 c160: - 1e+09 B10(14) - 1e+09 B32(14) + 1e+09 B96(4) - I274(15) + I296(15)
   >= -1.999999838e+09
 c161: - 1e+09 B10(14) - 1e+09 B34(15) - 1e+09 B97(2) + I274(15) - I298(17)
   >= -2.999999903e+09
 c162: - 1e+09 B10(14) - 1e+09 B34(15) + 1e+09 B97(2) - I274(15) + I298(17)
   >= -1.999999838e+09
 c163: - 1e+09 B12(13) - 1e+09 B18(13) - 1e+09 B105(2) + I276(16)
   - I282(14) >= -2.999999926e+09
 c164: - 1e+09 B12(13) - 1e+09 B18(13) + 1e+09 B105(2) - I276(16)
   + I282(14) >= -1.999999918e+09
 c165: - 1e+09 B11(14) - 1e+09 B20(16) - 1e+09 B106(4) + I275(16)
   - I284(18) >= -2.999999807e+09
 c166: - 1e+09 B11(14) - 1e+09 B20(16) + 1e+09 B106(4) - I275(16)
   + I284(18) >= -1.999999898e+09
 c167: - 1e+09 B13(15) - 1e+09 B21(14) - 1e+09 B106(4) + I277(18)
   - I285(16) >= -2.999999881e+09
 c168: - 1e+09 B13(15) - 1e+09 B21(14) + 1e+09 B106(4) - I277(18)
   + I285(16) >= -1.999999891e+09
 c169: - 1e+09 B13(15) - 1e+09 B22(15) - 1e+09 B107(2) + I277(18)
   - I286(18) >= -2.999999799e+09
 c170: - 1e+09 B13(15) - 1e+09 B22(15) + 1e+09 B107(2) - I277(18)
   + I286(18) >= -1.999999888e+09
 c171: - 1e+09 B12(13) - 1e+09 B26(13) - 1e+09 B108(2) + I276(16)
   - I290(14) >= -2.999999922e+09
 c172: - 1e+09 B12(13) - 1e+09 B26(13) + 1e+09 B108(2) - I276(16)
   + I290(14) >= -1.99999992e+09
 c173: - 1e+09 B11(14) - 1e+09 B27(15) - 1e+09 B109(2) + I275(16)
   - I291(17) >= -2.999999733e+09
 c174: - 1e+09 B11(14) - 1e+09 B27(15) + 1e+09 B109(2) - I275(16)
   + I291(17) >= -1.9999999e+09
 c175: - 1e+09 B13(15) - 1e+09 B29(16) - 1e+09 B110(2) + I277(18)
   - I293(19) >= -2.999999844e+09
 c176: - 1e+09 B13(15) - 1e+09 B29(16) + 1e+09 B110(2) - I277(18)
   + I293(19) >= -1.999999884e+09
 c177: - 1e+09 B12(13) - 1e+09 B31(14) - 1e+09 B111(4) + I276(16)
   - I295(15) >= -2.999999864e+09
 c178: - 1e+09 B12(13) - 1e+09 B31(14) + 1e+09 B111(4) - I276(16)
   + I295(15) >= -1.999999919e+09
 c179: - 1e+09 B11(14) - 1e+09 B32(14) - 1e+09 B111(4) + I275(16)
   - I296(15) >= -2.999999845e+09
 c180: - 1e+09 B11(14) - 1e+09 B32(14) + 1e+09 B111(4) - I275(16)
   + I296(15) >= -1.999999896e+09
 c181: - 1e+09 B11(14) - 1e+09 B34(15) - 1e+09 B112(4) + I275(16)
   - I298(17) >= -2.999999904e+09
 c182: - 1e+09 B11(14) - 1e+09 B34(15) + 1e+09 B112(4) - I275(16)
   + I298(17) >= -1.9999999e+09
 c183: - 1e+09 B13(15) - 1e+09 B35(16) - 1e+09 B112(4) + I277(18)
   - I299(19) >= -2.99999992e+09
 c184: - 1e+09 B13(15) - 1e+09 B35(16) + 1e+09 B112(4) - I277(18)
   + I299(19) >= -1.999999887e+09
 c185: - 1e+09 B16(8) - 1e+09 B19(8) - 1e+09 B121(2) + I280(11) - I283(10)
   >= -2.999999846e+09
 c186: - 1e+09 B16(8) - 1e+09 B19(8) + 1e+09 B121(2) - I280(11) + I283(10)
   >= -1.999999835e+09
 c187: - 1e+09 B14(14) - 1e+09 B23(14) - 1e+09 B122(4) + I278(17)
   - I287(18) >= -2.999999883e+09
 c188: - 1e+09 B14(14) - 1e+09 B23(14) + 1e+09 B122(4) - I278(17)
   + I287(18) >= -1.999999807e+09
 c189: - 1e+09 B15(10) - 1e+09 B24(10) - 1e+09 B122(4) + I279(13)
   - I288(14) >= -2.999999834e+09
 c190: - 1e+09 B15(10) - 1e+09 B24(10) + 1e+09 B122(4) - I279(13)
   + I288(14) >= -1.999999893e+09
 c191: - 1e+09 B14(14) - 1e+09 B28(13) - 1e+09 B124(2) + I278(17)
   - I292(15) >= -2.999999812e+09
 c192: - 1e+09 B14(14) - 1e+09 B28(13) + 1e+09 B124(2) - I278(17)
   + I292(15) >= -1.999999808e+09
 c193: - 1e+09 B15(10) - 1e+09 B30(10) - 1e+09 B125(2) + I279(13)
   - I294(13) >= -2.999999851e+09
 c194: - 1e+09 B15(10) - 1e+09 B30(10) + 1e+09 B125(2) - I279(13)
   + I294(13) >= -1.999999893e+09
 c195: - 1e+09 B14(14) - 1e+09 B36(12) - 1e+09 B127(2) + I278(17)
   - I300(15) >= -2.999999939e+09
 c196: - 1e+09 B14(14) - 1e+09 B36(12) + 1e+09 B127(2) - I278(17)
   + I300(15) >= -1.99999981e+09
 c197: - 1e+09 B14(14) - 1e+09 B37(13) - 1e+09 B128(4) + I278(17)
   - I301(16) >= -2.999999875e+09
 c198: - 1e+09 B14(14) - 1e+09 B37(13) + 1e+09 B128(4) - I278(17)
   + I301(16) >= -1.999999809e+09
 c199: - 1e+09 B15(10) - 1e+09 B38(10) - 1e+09 B128(4) + I279(13)
   - I302(14) >= -2.999999903e+09
 c200: - 1e+09 B15(10) - 1e+09 B38(10) + 1e+09 B128(4) - I279(13)
   + I302(14) >= -1.999999894e+09
 c201: - 1e+09 B17(13) - 1e+09 B25(13) - 1e+09 B138(4) + I281(14)
   - I289(14) >= -2.999999901e+09
 c202: - 1e+09 B17(13) - 1e+09 B25(13) + 1e+09 B138(4) - I281(14)
   + I289(14) >= -1.999999901e+09
 c203: - 1e+09 B18(13) - 1e+09 B26(13) - 1e+09 B138(4) + I282(14)
   - I290(14) >= -2.999999924e+09
 c204: - 1e+09 B18(13) - 1e+09 B26(13) + 1e+09 B138(4) - I282(14)
   + I290(14) >= -1.999999922e+09
 c205: - 1e+09 B17(13) - 1e+09 B33(14) - 1e+09 B141(4) + I281(14)
   - I297(15) >= -2.99999986e+09
 c206: - 1e+09 B17(13) - 1e+09 B33(14) + 1e+09 B141(4) - I281(14)
   + I297(15) >= -1.999999903e+09
 c207: - 1e+09 B18(13) - 1e+09 B31(14) - 1e+09 B141(4) + I282(14)
   - I295(15) >= -2.999999865e+09
 c208: - 1e+09 B18(13) - 1e+09 B31(14) + 1e+09 B141(4) - I282(14)
   + I295(15) >= -1.999999927e+09
 c209: - 1e+09 B20(16) - 1e+09 B27(15) - 1e+09 B154(2) + I284(18)
   - I291(17) >= -2.999999734e+09
 c210: - 1e+09 B20(16) - 1e+09 B27(15) + 1e+09 B154(2) - I284(18)
   + I291(17) >= -1.999999811e+09
 c211: - 1e+09 B21(14) - 1e+09 B29(16) - 1e+09 B155(2) + I285(16)
   - I293(19) >= -2.999999841e+09
 c212: - 1e+09 B21(14) - 1e+09 B29(16) + 1e+09 B155(2) - I285(16)
   + I293(19) >= -1.999999878e+09
 c213: - 1e+09 B20(16) - 1e+09 B32(14) - 1e+09 B156(2) + I284(18)
   - I296(15) >= -2.999999844e+09
 c214: - 1e+09 B20(16) - 1e+09 B32(14) + 1e+09 B156(2) - I284(18)
   + I296(15) >= -1.999999807e+09
 c215: - 1e+09 B20(16) - 1e+09 B34(15) - 1e+09 B157(4) + I284(18)
   - I298(17) >= -2.999999899e+09
 c216: - 1e+09 B20(16) - 1e+09 B34(15) + 1e+09 B157(4) - I284(18)
   + I298(17) >= -1.999999808e+09
 c217: - 1e+09 B21(14) - 1e+09 B35(16) - 1e+09 B157(4) + I285(16)
   - I299(19) >= -2.999999925e+09
 c218: - 1e+09 B21(14) - 1e+09 B35(16) + 1e+09 B157(4) - I285(16)
   + I299(19) >= -1.999999885e+09
 c219: - 1e+09 B23(14) - 1e+09 B28(13) - 1e+09 B169(2) + I287(18)
   - I292(15) >= -2.999999811e+09
 c220: - 1e+09 B23(14) - 1e+09 B28(13) + 1e+09 B169(2) - I287(18)
   + I292(15) >= -1.999999888e+09
 c221: - 1e+09 B22(15) - 1e+09 B29(16) - 1e+09 B170(4) + I286(18)
   - I293(19) >= -2.999999842e+09
 c222: - 1e+09 B22(15) - 1e+09 B29(16) + 1e+09 B170(4) - I286(18)
   + I293(19) >= -1.999999797e+09
 c223: - 1e+09 B24(10) - 1e+09 B30(10) - 1e+09 B170(4) + I288(14)
   - I294(13) >= -2.999999851e+09
 c224: - 1e+09 B24(10) - 1e+09 B30(10) + 1e+09 B170(4) - I288(14)
   + I294(13) >= -1.999999834e+09
 c225: - 1e+09 B22(15) - 1e+09 B35(16) - 1e+09 B172(4) + I286(18)
   - I299(19) >= -2.999999923e+09
 c226: - 1e+09 B22(15) - 1e+09 B35(16) + 1e+09 B172(4) - I286(18)
   + I299(19) >= -1.999999798e+09
 c227: - 1e+09 B23(14) - 1e+09 B36(12) - 1e+09 B172(4) + I287(18)
   - I300(15) >= -2.999999939e+09
 c228: - 1e+09 B23(14) - 1e+09 B36(12) + 1e+09 B172(4) - I287(18)
   + I300(15) >= -1.999999886e+09
 c229: - 1e+09 B23(14) - 1e+09 B37(13) - 1e+09 B173(4) + I287(18)
   - I301(16) >= -2.99999988e+09
 c230: - 1e+09 B23(14) - 1e+09 B37(13) + 1e+09 B173(4) - I287(18)
   + I301(16) >= -1.999999888e+09
 c231: - 1e+09 B24(10) - 1e+09 B38(10) - 1e+09 B173(4) + I288(14)
   - I302(14) >= -2.999999903e+09
 c232: - 1e+09 B24(10) - 1e+09 B38(10) + 1e+09 B173(4) - I288(14)
   + I302(14) >= -1.999999836e+09
 c233: - 1e+09 B25(13) - 1e+09 B33(14) - 1e+09 B186(4) + I289(14)
   - I297(15) >= -2.999999856e+09
 c234: - 1e+09 B25(13) - 1e+09 B33(14) + 1e+09 B186(4) - I289(14)
   + I297(15) >= -1.999999899e+09
 c235: - 1e+09 B26(13) - 1e+09 B31(14) - 1e+09 B186(4) + I290(14)
   - I295(15) >= -2.999999861e+09
 c236: - 1e+09 B26(13) - 1e+09 B31(14) + 1e+09 B186(4) - I290(14)
   + I295(15) >= -1.999999923e+09
 c237: - 1e+09 B27(15) - 1e+09 B32(14) - 1e+09 B201(2) + I291(17)
   - I296(15) >= -2.999999842e+09
 c238: - 1e+09 B27(15) - 1e+09 B32(14) + 1e+09 B201(2) - I291(17)
   + I296(15) >= -1.99999974e+09
 c239: - 1e+09 B27(15) - 1e+09 B34(15) - 1e+09 B202(4) + I291(17)
   - I298(17) >= -2.999999904e+09
 c240: - 1e+09 B27(15) - 1e+09 B34(15) + 1e+09 B202(4) - I291(17)
   + I298(17) >= -1.999999739e+09
 c241: - 1e+09 B28(13) - 1e+09 B36(12) - 1e+09 B202(4) + I292(15)
   - I300(15) >= -2.999999942e+09
 c242: - 1e+09 B28(13) - 1e+09 B36(12) + 1e+09 B202(4) - I292(15)
   + I300(15) >= -1.999999813e+09
 c243: - 1e+09 B28(13) - 1e+09 B37(13) - 1e+09 B203(2) + I292(15)
   - I301(16) >= -2.99999988e+09
 c244: - 1e+09 B28(13) - 1e+09 B37(13) + 1e+09 B203(2) - I292(15)
   + I301(16) >= -1.999999815e+09
 c245: - 1e+09 B29(16) - 1e+09 B35(16) - 1e+09 B217(2) + I293(19)
   - I299(19) >= -2.999999923e+09
 c246: - 1e+09 B29(16) - 1e+09 B35(16) + 1e+09 B217(2) - I293(19)
   + I299(19) >= -1.99999984e+09
 c247: - 1e+09 B30(10) - 1e+09 B38(10) - 1e+09 B218(2) + I294(13)
   - I302(14) >= -2.999999904e+09
 c248: - 1e+09 B30(10) - 1e+09 B38(10) + 1e+09 B218(2) - I294(13)
   + I302(14) >= -1.999999851e+09
 c249: I264(14) >= 0
 c250: I264(14) >= 0
 c251: I265(14) >= 0
 c252: I265(14) >= 0
 c253: I266(18) >= 0
 c254: I266(18) >= 0
 c255: I267(18) >= 0
 c256: I267(18) >= 0
 c257: I268(16) >= 0
 c258: I268(16) >= 0
 c259: I269(16) >= 0
 c260: I269(16) >= 0
 c261: I270(18) >= 0
 c262: I270(18) >= 0
 c263: I271(18) >= 0
 c264: I271(18) >= 0
 c265: I272(12) >= 0
 c266: I272(12) >= 0
 c267: I273(15) >= 0
 c268: I273(15) >= 0
 c269: I274(15) >= 0
 c270: I274(15) >= 0
 c271: I275(16) >= 0
 c272: I275(16) >= 0
 c273: I276(16) >= 0
 c274: I276(16) >= 0
 c275: I277(18) >= 0
 c276: I277(18) >= 0
 c277: I278(17) >= 0
 c278: I278(17) >= 0
 c279: I279(13) >= 0
 c280: I279(13) >= 0
 c281: I280(11) >= 0
 c282: I280(11) >= 0
 c283: I281(14) >= 0
 c284: I281(14) >= 0
 c285: I282(14) >= 0
 c286: I282(14) >= 0
 c287: I283(10) >= 0
 c288: I283(10) >= 0
 c289: I284(18) >= 0
 c290: I284(18) >= 0
 c291: I285(16) >= 0
 c292: I285(16) >= 0
 c293: I286(18) >= 0
 c294: I286(18) >= 0
 c295: I287(18) >= 0
 c296: I287(18) >= 0
 c297: I288(14) >= 0
 c298: I288(14) >= 0
 c299: I289(14) >= 0
 c300: I289(14) >= 0
 c301: I290(14) >= 0
 c302: I290(14) >= 0
 c303: I291(17) >= 0
 c304: I291(17) >= 0
 c305: I292(15) >= 0
 c306: I292(15) >= 0
 c307: I293(19) >= 0
 c308: I293(19) >= 0
 c309: I294(13) >= 0
 c310: I294(13) >= 0
 c311: I295(15) >= 0
 c312: I295(15) >= 0
 c313: I296(15) >= 0
 c314: I296(15) >= 0
 c315: I297(15) >= 0
 c316: I297(15) >= 0
 c317: I298(17) >= 0
 c318: I298(17) >= 0
 c319: I299(19) >= 0
 c320: I299(19) >= 0
 c321: I300(15) >= 0
 c322: I300(15) >= 0
 c323: I301(16) >= 0
 c324: I301(16) >= 0
 c325: I302(14) >= 0
 c326: I302(14) >= 0
 c327: 150 B6(15) + I270(18) - 1e+09 B310(3) >= -9.99999892e+08
 c328: 150 B6(15) + I270(18) - 1e+09 B310(3) <= 108
 c329: 160 B7(14) + I271(18) - 1e+09 B311(3) >= -9.99999892e+08
 c330: 160 B7(14) + I271(18) - 1e+09 B311(3) <= 108
 c331: 200 B8(8) + I272(12) - 1e+09 B312(3) >= -9.99999892e+08
 c332: 200 B8(8) + I272(12) - 1e+09 B312(3) <= 108
 c333: 178 B14(14) + I278(17) - 1e+09 B318(3) >= -9.99999903e+08
 c334: 178 B14(14) + I278(17) - 1e+09 B318(3) <= 97
 c335: 95 B15(10) + I279(13) - 1e+09 B319(3) >= -9.99999903e+08
 c336: 95 B15(10) + I279(13) - 1e+09 B319(3) <= 97
 c337: 150 B16(8) + I280(11) - 1e+09 B320(3) >= -9.99999903e+08
 c338: 150 B16(8) + I280(11) - 1e+09 B320(3) <= 97
 c339: 190 B22(15) + I286(18) - 1e+09 B326(3) >= -9.99999946e+08
 c340: 190 B22(15) + I286(18) - 1e+09 B326(3) <= 54
 c341: 100 B23(14) + I287(18) - 1e+09 B327(3) >= -9.99999946e+08
 c342: 100 B23(14) + I287(18) - 1e+09 B327(3) <= 54
 c343: 153 B24(10) + I288(14) - 1e+09 B328(3) >= -9.99999946e+08
 c344: 153 B24(10) + I288(14) - 1e+09 B328(3) <= 54
 c345: 145 B29(16) + I293(19) - 1e+09 B333(3) >= -9.99999967e+08
 c346: 145 B29(16) + I293(19) - 1e+09 B333(3) <= 33
 c347: 136 B30(10) + I294(13) - 1e+09 B334(3) >= -9.99999967e+08
 c348: 136 B30(10) + I294(13) - 1e+09 B334(3) <= 33
 c349: 110 B37(13) + I301(16) - 1e+09 B341(3) >= -9.99999935e+08
 c350: 110 B37(13) + I301(16) - 1e+09 B341(3) <= 65
 c351: 85 B38(10) + I302(14) - 1e+09 B342(3) >= -9.99999935e+08
 c352: 85 B38(10) + I302(14) - 1e+09 B342(3) <= 65
 c353: - I270(18) - I271(18) - I272(12) - I278(17) - I279(13) - I280(11)
   - I286(18) - I287(18) - I288(14) - I293(19) - I294(13) - I301(16)
   - I302(14) + I303(1) - 42 B310(3) - 52 B311(3) - 92 B312(3) - 81 B318(3)
   + 2 B319(3) - 53 B320(3) - 136 B326(3) - 46 B327(3) - 99 B328(3)
   - 112 B333(3) - 103 B334(3) - 45 B341(3) - 20 B342(3) >= 0
Bounds
Binaries
 B0(13) B1(13) B2(17) B3(14) B4(13) B5(13) B6(15) B7(14) B8(8) B9(14)
 B10(14) B11(14) B12(13) B13(15) B14(14) B15(10) B16(8) B17(13) B18(13)
 B19(8) B20(16) B21(14) B22(15) B23(14) B24(10) B25(13) B26(13) B27(15)
 B28(13) B29(16) B30(10) B31(14) B32(14) B33(14) B34(15) B35(16) B36(12)
 B37(13) B38(10) B39(0) B40(0) B41(0) B42(4) B43(4) B44(0) B45(4) B46(2)
 B47(0) B48(4) B49(2) B50(0) B51(6) B52(2) B53(0) B54(0) B55(0) B56(0)
 B57(2) B58(4) B59(0) B60(4) B61(2) B62(2) B63(4) B64(0) B65(2) B66(4)
 B67(2) B68(0) B69(0) B70(0) B71(0) B72(0) B73(2) B74(4) B75(0) B76(4)
 B77(4) B78(0) B79(2) B80(2) B81(0) B82(4) B83(2) B84(0) B85(0) B86(0)
 B87(0) B88(0) B89(0) B90(2) B91(2) B92(0) B93(2) B94(2) B95(0) B96(4)
 B97(2) B98(0) B99(0) B100(0) B101(0) B102(0) B103(0) B104(0) B105(2)
 B106(4) B107(2) B108(2) B109(2) B110(2) B111(4) B112(4) B113(0) B114(0)
 B115(0) B116(0) B117(0) B118(0) B119(0) B120(0) B121(2) B122(4) B123(0)
 B124(2) B125(2) B126(0) B127(2) B128(4) B129(0) B130(0) B131(0) B132(0)
 B133(0) B134(0) B135(0) B136(0) B137(0) B138(4) B139(0) B140(0) B141(4)
 B142(0) B143(0) B144(0) B145(0) B146(0) B147(0) B148(0) B149(0) B150(0)
 B151(0) B152(0) B153(0) B154(2) B155(2) B156(2) B157(4) B158(0) B159(0)
 B160(0) B161(0) B162(0) B163(0) B164(0) B165(0) B166(0) B167(0) B168(0)
 B169(2) B170(4) B171(0) B172(4) B173(4) B174(0) B175(0) B176(0) B177(0)
 B178(0) B179(0) B180(0) B181(0) B182(0) B183(0) B184(0) B185(0) B186(4)
 B187(0) B188(0) B189(0) B190(0) B191(0) B192(0) B193(0) B194(0) B195(0)
 B196(0) B197(0) B198(0) B199(0) B200(0) B201(2) B202(4) B203(2) B204(0)
 B205(0) B206(0) B207(0) B208(0) B209(0) B210(0) B211(0) B212(0) B213(0)
 B214(0) B215(0) B216(0) B217(2) B218(2) B219(0) B220(0) B221(0) B222(0)
 B223(0) B224(0) B225(0) B226(0) B227(0) B228(0) B229(0) B230(0) B231(0)
 B232(0) B233(0) B234(0) B235(0) B236(0) B237(0) B238(0) B239(0) B240(0)
 B241(0) B242(0) B243(0) B244(0) B245(0) B246(0) B247(0) B248(0) B249(0)
 B250(0) B251(0) B252(0) B253(0) B254(0) B255(0) B256(0) B257(0) B258(0)
 B259(0) B260(0) B261(0) B262(0) B263(0) B304(0) B305(0) B306(0) B307(0)
 B308(0) B309(0) B310(3) B311(3) B312(3) B313(0) B314(0) B315(0) B316(0)
 B317(0) B318(3) B319(3) B320(3) B321(0) B322(0) B323(0) B324(0) B325(0)
 B326(3) B327(3) B328(3) B329(0) B330(0) B331(0) B332(0) B333(3) B334(3)
 B335(0) B336(0) B337(0) B338(0) B339(0) B340(0) B341(3) B342(3)
Generals
 I264(14) I265(14) I266(18) I267(18) I268(16) I269(16) I270(18) I271(18)
 I272(12) I273(15) I274(15) I275(16) I276(16) I277(18) I278(17) I279(13)
 I280(11) I281(14) I282(14) I283(10) I284(18) I285(16) I286(18) I287(18)
 I288(14) I289(14) I290(14) I291(17) I292(15) I293(19) I294(13) I295(15)
 I296(15) I297(15) I298(17) I299(19) I300(15) I301(16) I302(14) I303(1)
End
